qbf_easy_train/easy_4429_SAT.qdimacs
p cnf 36 99
a 10 4 23 0
e 1 2 3 5 6 7 8 9 11 12 13 14 15 16 17 18 19 20 21 22 24 25 26 27 28 29 30 31 32 33 34 35 36 0
3 1 0
3 -2 0
-1 2 -3 0
-5 4 0
-5 -1 0
-4 1 5 0
-6 3 0
-6 -5 0
-3 5 6 0
-9 -7 0
-9 -8 0
7 8 9 0
-9 3 -10 0
9 -3 -10 0
-9 -3 10 0
9 3 10 0
-5 10 -11 0
5 -10 -11 0
-5 -10 11 0
5 10 11 0
-12 6 0
-12 11 0
-6 -11 12 0
-4 -13 0
4 -13 0
-14 1 0
-14 -7 0
-1 7 14 0
-15 13 0
-15 14 0
-13 -14 15 0
-16 7 0
-16 -9 0
-7 9 16 0
-18 16 0
-18 -17 0
-16 17 18 0
-19 -4 -20 0
19 4 -20 0
-19 4 20 0
19 -4 20 0
20 -3 -21 0
-20 3 -21 0
20 3 21 0
-20 -3 21 0
-22 21 0
-22 17 0
-21 -17 22 0
-23 9 0
-23 22 0
-9 -22 23 0
5 13 -24 0
-5 -13 -24 0
5 -13 24 0
-5 13 24 0
-25 10 0
-25 -24 0
-10 24 25 0
23 -25 -26 0
-23 25 -26 0
23 25 26 0
-23 -25 26 0
-27 18 0
-27 26 0
-18 -26 27 0
-28 21 0
-28 -9 0
-21 9 28 0
-29 -28 0
-29 28 0
30 -5 0
30 29 0
5 -29 -30 0
27 -30 -31 0
-27 30 -31 0
27 30 31 0
-27 -30 31 0
33 -32 0
33 -4 0
32 4 -33 0
34 31 0
34 -33 0
-31 33 -34 0
-35 15 0
-35 -34 0
-15 34 35 0
36 12 0
36 35 0
-12 -35 -36 0
-7 28 -24 12 0
-10 -36 30 -15 35 0
31 13 18 3 -20 0
5 -35 19 -32 -13 18 0
-16 -9 2 19 -3 0
-8 29 -9 -19 -22 -17 -6 0
31 3 -8 0
-26 -11 -27 0
22 34 33 -28 -26 19 0
36 0
