sat_easy_train/easy_4429_SAT.dimacs
p cnf 125 416
-3 -1 0
-3 -2 0
1 2 3 0
4 -3 0
4 3 0
7 5 0
7 6 0
-5 -6 -7 0
-4 7 -8 0
4 -7 -8 0
-4 -7 8 0
4 7 8 0
11 -9 0
11 -10 0
9 10 -11 0
12 -11 0
12 3 0
11 -3 -12 0
12 -4 -13 0
-12 4 -13 0
12 4 13 0
-12 -4 13 0
-4 14 -15 0
4 -14 -15 0
-4 -14 15 0
4 14 15 0
-16 17 -18 0
16 -17 -18 0
-16 -17 18 0
16 17 18 0
-15 -18 -19 0
15 18 -19 0
-15 18 19 0
15 -18 19 0
-20 9 0
-20 -19 0
-9 19 20 0
21 13 0
21 20 0
-13 -20 -21 0
9 -14 -23 0
-9 14 -23 0
9 14 23 0
-9 -14 23 0
-24 23 0
-24 -14 0
-23 14 24 0
26 -25 0
26 -18 0
25 18 -26 0
24 26 -27 0
-24 -26 -27 0
24 -26 27 0
-24 26 27 0
28 22 0
28 -27 0
-22 27 -28 0
-30 -7 0
-30 29 0
7 -29 30 0
25 -31 -32 0
-25 31 -32 0
25 31 32 0
-25 -31 32 0
30 -32 -33 0
-30 32 -33 0
30 32 33 0
-30 -32 33 0
-34 6 0
-34 33 0
-6 -33 34 0
-34 -35 -36 0
34 35 -36 0
-34 35 36 0
34 -35 36 0
-37 -5 0
-37 -36 0
5 36 37 0
-38 28 0
-38 37 0
-28 -37 38 0
-39 2 0
-39 11 0
-2 -11 39 0
-1 -22 -40 0
1 22 -40 0
-1 22 40 0
1 -22 40 0
-29 -40 -41 0
29 40 -41 0
-29 40 41 0
29 -40 41 0
-39 41 -42 0
39 -41 -42 0
-39 -41 42 0
39 41 42 0
43 38 0
43 -42 0
-38 42 -43 0
44 -20 0
44 -3 0
20 3 -44 0
45 44 0
45 -27 0
-44 27 -45 0
-46 23 0
-46 22 0
-23 -22 46 0
46 3 -47 0
-46 -3 -47 0
46 -3 47 0
-46 3 47 0
48 -45 0
48 47 0
45 -47 -48 0
49 43 0
49 48 0
-43 -48 -49 0
50 -21 0
50 -49 0
21 49 -50 0
51 6 0
51 27 0
-6 -27 -51 0
-51 33 -52 0
51 -33 -52 0
-51 -33 52 0
51 33 52 0
53 52 0
53 -20 0
-52 20 -53 0
-46 -53 -54 0
46 53 -54 0
-46 53 54 0
46 -53 54 0
-55 50 0
-55 54 0
-50 -54 55 0
8 55 -56 0
-8 -55 -56 0
8 -55 56 0
-8 55 56 0
-57 34 0
-57 -6 0
-34 6 57 0
-58 -22 0
-58 57 0
22 -57 58 0
-59 29 0
-59 30 0
-29 -30 59 0
-60 -58 0
-60 59 0
58 -59 60 0
61 56 0
61 -60 0
-56 60 -61 0
-62 23 0
-62 11 0
-23 -11 62 0
-63 61 0
-63 62 0
-61 -62 63 0
64 28 0
64 28 0
-28 -64 0
-27 25 -65 0
27 -25 -65 0
-27 -25 65 0
27 25 65 0
-66 -64 0
-66 -65 0
64 65 66 0
-17 52 -67 0
17 -52 -67 0
-17 -52 67 0
17 52 67 0
68 -23 0
68 57 0
23 -57 -68 0
67 68 -69 0
-67 -68 -69 0
67 -68 69 0
-67 68 69 0
70 -66 0
70 69 0
66 -69 -70 0
63 -70 -71 0
-63 70 -71 0
63 70 71 0
-63 -70 71 0
-73 10 0
-73 72 0
-10 -72 73 0
74 37 0
74 -73 0
-37 73 -74 0
74 51 -75 0
-74 -51 -75 0
74 -51 75 0
-74 51 75 0
-76 -12 0
-76 5 0
12 -5 76 0
-77 40 0
-77 18 0
-40 -18 77 0
-3 -77 -78 0
3 77 -78 0
-3 77 78 0
3 -77 78 0
-76 -78 -79 0
76 78 -79 0
-76 78 79 0
76 -78 79 0
-75 79 -80 0
75 -79 -80 0
-75 -79 80 0
75 79 80 0
-68 24 -81 0
68 -24 -81 0
-68 -24 81 0
68 24 81 0
82 -34 0
82 12 0
34 -12 -82 0
-74 82 -83 0
74 -82 -83 0
-74 -82 83 0
74 82 83 0
-84 24 0
-84 19 0
-24 -19 84 0
85 34 0
85 84 0
-34 -84 -85 0
-86 -34 0
-86 -10 0
34 10 86 0
-87 31 0
-87 -34 0
-31 34 87 0
-87 30 -88 0
87 -30 -88 0
-87 -30 88 0
87 30 88 0
-89 -15 0
-89 88 0
15 -88 89 0
-90 86 0
-90 -89 0
-86 89 90 0
91 -85 0
91 90 0
85 -90 -91 0
-92 -83 0
-92 91 0
83 -91 92 0
-93 -81 0
-93 -92 0
81 92 93 0
94 -67 0
94 89 0
67 -89 -94 0
95 -32 0
95 -94 0
32 94 -95 0
-96 -93 0
-96 -95 0
93 95 96 0
97 -20 0
97 13 0
20 -13 -97 0
-34 84 -98 0
34 -84 -98 0
-34 -84 98 0
34 84 98 0
99 -97 0
99 98 0
97 -98 -99 0
-96 -99 -100 0
96 99 -100 0
-96 99 100 0
96 -99 100 0
101 -28 0
101 -73 0
28 73 -101 0
102 20 0
102 -101 0
-20 101 -102 0
-103 100 0
-103 -102 0
-100 102 103 0
-80 103 -104 0
80 -103 -104 0
-80 -103 104 0
80 103 104 0
105 71 0
105 104 0
-71 -104 -105 0
-106 89 0
-106 -2 0
-89 2 106 0
-107 -52 0
-107 -106 0
52 106 107 0
108 -9 0
108 -9 0
9 -108 0
109 77 0
109 36 0
-77 -36 -109 0
110 108 0
110 -109 0
-108 109 -110 0
112 -28 0
112 111 0
28 -111 -112 0
-2 -87 -113 0
2 87 -113 0
-2 87 113 0
2 -87 113 0
-114 -26 0
-114 31 0
26 -31 114 0
-24 -2 -115 0
24 2 -115 0
-24 2 115 0
24 -2 115 0
-68 115 -116 0
68 -115 -116 0
-68 -115 116 0
68 115 116 0
117 114 0
117 -116 0
-114 116 -117 0
-36 -27 -118 0
36 27 -118 0
-36 27 118 0
36 -27 118 0
119 73 0
119 -118 0
-73 118 -119 0
120 -117 0
120 119 0
117 -119 -120 0
-121 113 0
-121 120 0
-113 -120 121 0
122 112 0
122 -121 0
-112 121 -122 0
123 -110 0
123 -122 0
110 122 -123 0
124 -107 0
124 123 0
107 -123 -124 0
-125 105 0
-125 124 0
-105 -124 125 0
35 79 -5 70 87 59 0
-114 49 -77 0
-102 -20 91 115 -31 0
86 106 64 24 -61 0
124 -4 98 -30 105 -97 0
-15 -71 0
-5 -30 -102 0
103 -48 -8 0
97 -18 -119 -2 11 0
-111 -106 -116 -125 46 20 0
-1 24 76 0
71 77 0
46 112 107 -2 0
-73 31 93 -11 91 -29 0
-39 -80 99 0
-90 21 -111 15 75 0
106 123 109 125 0
-100 -112 -110 2 0
-81 112 104 -92 -13 -15 0
90 113 70 -55 123 0
-120 -41 -114 -23 29 -18 0
79 101 0
-8 -29 62 45 0
109 -120 2 11 0
-5 -116 106 0
-118 -38 0
48 10 -112 -41 105 0
-8 -16 66 75 60 52 0
-51 108 -23 -16 0
95 -23 -5 98 70 0
-69 2 -44 -50 -108 -45 0
-66 -62 84 29 0
78 -27 66 46 125 0
-48 106 111 97 27 4 0
-87 103 -115 -104 112 0
-37 112 114 60 -74 -2 0
-92 63 100 -74 0
3 -46 93 0
-113 -81 92 30 27 -104 0
78 6 14 26 -68 0
-56 -117 73 -91 83 0
-33 95 -67 -75 0
89 2 -119 11 20 0
104 -66 -49 17 -68 0
-41 -108 0
96 103 -82 2 -56 0
-44 71 -33 -111 -97 0
-13 -90 0
-64 125 2 124 0
99 17 76 94 -7 0
-61 -69 52 -74 0
-114 66 -31 85 0
67 21 91 125 3 0
-87 59 0
125 0
